(set-info :smt-lib-version 2.6)
(set-logic QF_BV)
(set-info :source |
 Patrice Godefroid, SAGE (systematic dynamic test generation)
 For more information: http://research.microsoft.com/en-us/um/people/pg/public_psfiles/ndss2008.pdf
|)
(set-info :category "industrial")
(set-info :status unsat)
(declare-fun T4_20 () (_ BitVec 32))
(declare-fun T1_20 () (_ BitVec 8))
(declare-fun T1_21 () (_ BitVec 8))
(declare-fun T1_22 () (_ BitVec 8))
(declare-fun T1_23 () (_ BitVec 8))
(assert (and true (= T4_20 (bvor (bvshl (bvor (bvshl (bvor (bvshl ((_ zero_extend 24) T1_23) (_ bv8 32)) ((_ zero_extend 24) T1_22)) (_ bv8 32)) ((_ zero_extend 24) T1_21)) (_ bv8 32)) ((_ zero_extend 24) T1_20))) (bvule (_ bv1 32) T4_20) (bvule (_ bv0 32) T4_20) (bvule T4_20 (_ bv0 32))))
(check-sat)
(exit)
